Maximize

5 x_0 + 10 x_1


Subject To

a0: r_0_0 + r_0_1 <= 6
a1: r_1_0 + r_1_1 <= 3
a2: r_2_0 + r_2_1 <= 8
b0: 1 r_0_0 + 0 r_1_0 + 0 r_2_0 - 6 x_0 = 0
b1: 1 r_0_1 + 0 r_1_1 + 0 r_2_1 - 0 x_1 = 0
b2: 0 r_0_0 + 1 r_1_0 + 0 r_2_0 - 0 x_0 = 0
b3: 0 r_0_1 + 1 r_1_1 + 0 r_2_1 - 3 x_1 = 0
b4: 0 r_0_0 + 0 r_1_0 + 1 r_2_0 - 0 x_0 = 0
b5: 0 r_0_1 + 0 r_1_1 + 1 r_2_1 - 8 x_1 = 0




Binary

x_0 x_1


General

 r_0_0 r_0_1 r_1_0 r_1_1 r_2_0 r_2_1



End
